Problem:    
Rows:       256
Columns:    89 (72 integer, 72 binary)
Non-zeros:  960
Status:     INTEGER OPTIMAL
Objective:  value = 36.777843 (MINimum)

   No.   Row name        Activity     Lower bound   Upper bound
------ ------------    ------------- ------------- -------------
     1 r.5                   1036.78             0               
     2 r.6                   -976.66      -992.592               
     3 r.7                   36.7778             0               
     4 r.8                   -991.76      -993.032               
     5 r.9                   36.7778             0               
     6 r.10                  20.7253      -992.181               
     7 r.11                  1036.78             0               
     8 r.12                 -990.893      -992.164               
     9 r.13                  36.7778             0               
    10 r.14                  20.7253      -986.493               
    11 r.15                  1036.78             0               
    12 r.16                 -979.275      -988.382               
    13 r.17                  1036.78             0               
    14 r.18                 -991.922      -993.194               
    15 r.19                  36.7778             0               
    16 r.20                    10.04      -992.975               
    17 r.21                  1036.78             0               
    18 r.22                  -984.51      -993.486               
    19 r.23                  36.7778             0               
    20 r.24                  21.1916      -993.892               
    21 r.25                  1036.78             0               
    22 r.26                 -999.612      -999.612               
    23 r.27                  36.7778             0               
    24 r.28                  2.20443      -994.528               
    25 r.29                  1036.78             0               
    26 r.30                 -963.222      -986.562               
    27 r.31                  36.7778             0               
    28 r.32                  36.7778      -974.703               
    29 r.33                  36.7778             0               
    30 r.34                  36.7778      -980.036               
    31 r.35                  1036.78             0               
    32 r.36                 -963.222      -983.947               
    33 r.37                        1             1             = 
    34 r.38                        1             1             = 
    35 r.39                        1             1             = 
    36 r.40                        1             1             = 
    37 r.41                        1             1             = 
    38 r.42                        1             1             = 
    39 r.43                        1             1             = 
    40 r.44                        1             1             = 
    41 r.45                     1001             2               
    42 r.46                    -1001         -1001               
    43 r.47                  1997.39      -992.181               
    44 r.48                     1001             2               
    45 r.49                    -1001         -1001               
    46 r.50                  3000.87      -992.164               
    47 r.51                     1001             2               
    48 r.52                    -1001         -1001               
    49 r.53                  1997.39      -986.493               
    50 r.54                     1001             2               
    51 r.55                    -1001         -1001               
    52 r.56                  3012.49      -988.382               
    53 r.57                        2             2               
    54 r.58                       -2         -1001               
    55 r.59                 -15.2622      -993.194               
    56 r.60                     1000             2               
    57 r.61                    -1000         -1001               
    58 r.62                   3001.8      -992.975               
    59 r.63                        2             2               
    60 r.64                       -2         -1001               
    61 r.65                 -7.84962      -993.486               
    62 r.66                     1000             2               
    63 r.67                    -1000         -1001               
    64 r.68                  3012.95      -993.892               
    65 r.69                 -977.932      -992.592               
    66 r.70                 -993.032      -993.032               
    67 r.71                 -977.932      -992.592               
    68 r.72                 -993.032      -993.032               
    69 r.73                 -986.562      -986.562               
    70 r.74                   13.438      -974.703               
    71 r.75                  28.5377      -986.562               
    72 r.76                  1028.54      -974.703               
    73 r.77                     1001             2               
    74 r.78                    -1001         -1001               
    75 r.79                  2013.44      -980.036               
    76 r.80                     1001             2               
    77 r.81                    -1001         -1001               
    78 r.82                  3028.54      -983.947               
    79 r.83                     1001             2               
    80 r.84                    -1001         -1001               
    81 r.85                  2002.61       7.40787               
    82 r.86                     1001             2               
    83 r.87                    -1001         -1001               
    84 r.88                  999.133       6.96834               
    85 r.89                     1000             2               
    86 r.90                    -1000         -1001               
    87 r.91                     2000      -986.493               
    88 r.92                        2             2               
    89 r.93                       -2         -1001               
    90 r.94                 -988.382      -988.382               
    91 r.95                     1001             2               
    92 r.96                    -1001         -1001               
    93 r.97                  1987.35      -993.194               
    94 r.98                     1001             2               
    95 r.99                    -1001         -1001               
    96 r.100                 2000.93      -992.975               
    97 r.101                    1001             2               
    98 r.102                   -1001         -1001               
    99 r.103                 1994.76      -993.486               
   100 r.104                    1001             2               
   101 r.105                   -1001         -1001               
   102 r.106                 2012.08      -993.892               
   103 r.107                 19.4535      -992.181               
   104 r.108                -992.164      -992.164               
   105 r.109                 19.4535      -992.181               
   106 r.110                -992.164      -992.164               
   107 r.111                    1001             2               
   108 r.112                   -1001         -1001               
   109 r.113                 2016.05      -986.562               
   110 r.114                    1001             2               
   111 r.115                   -1001         -1001               
   112 r.116                 2027.67      -974.703               
   113 r.117                 16.0525      -980.036               
   114 r.118                -983.947      -983.947               
   115 r.119                 27.6705      -980.036               
   116 r.120                -972.329      -983.947               
   117 r.121                    1001             2               
   118 r.122                   -1001         -1001               
   119 r.123                 2002.61       7.40787               
   120 r.124                    1001             2               
   121 r.125                   -1001         -1001               
   122 r.126                 987.515       6.96834               
   123 r.127                    1000             2               
   124 r.128                   -1000         -1001               
   125 r.129                    2000       7.81901               
   126 r.130                       2             2               
   127 r.131                      -2         -1001               
   128 r.132                 988.382       7.83554               
   129 r.133                 11.7642      -986.493               
   130 r.134                -988.236      -988.382               
   131 r.135                  11.618      -986.493               
   132 r.136                -988.382      -988.382               
   133 r.137                    1001             2               
   134 r.138                   -1001         -1001               
   135 r.139                 1994.76      -993.486               
   136 r.140                    1001             2               
   137 r.141                   -1001         -1001               
   138 r.142                 2000.47      -993.892               
   139 r.143                 19.4535      -986.493               
   140 r.144                -980.546      -988.382               
   141 r.145                 19.4535      -986.493               
   142 r.146                -980.546      -988.382               
   143 r.147                    1001             2               
   144 r.148                   -1001         -1001               
   145 r.149                 2016.05      -986.562               
   146 r.150                    1001             2               
   147 r.151                   -1001         -1001               
   148 r.152                 2016.05      -974.703               
   149 r.153                 16.0525      -980.036               
   150 r.154                -983.947      -983.947               
   151 r.155                 16.0525      -980.036               
   152 r.156                -983.947      -983.947               
   153 r.157                       2             2               
   154 r.158                      -2         -1001               
   155 r.159                 14.3787       7.40787               
   156 r.160                    1000             2               
   157 r.161                   -1000         -1001               
   158 r.162                 999.133       6.96834               
   159 r.163                    1001             2               
   160 r.164                   -1001         -1001               
   161 r.165                 2011.76       7.81901               
   162 r.166                    1001             2               
   163 r.167                   -1001         -1001               
   164 r.168                    2000       7.83554               
   165 r.169                       2             2               
   166 r.170                      -2         -1001               
   167 r.171                -993.471      -993.486               
   168 r.172                    1000             2               
   169 r.173                   -1000         -1001               
   170 r.174                 2012.08      -993.892               
   171 r.175                -993.194      -993.194               
   172 r.176                 8.76819      -992.975               
   173 r.177                -993.194      -993.194               
   174 r.178                 8.76819      -992.975               
   175 r.179                       2             2               
   176 r.180                      -2         -1001               
   177 r.181                -972.183      -986.562               
   178 r.182                    1000             2               
   179 r.183                   -1000         -1001               
   180 r.184                 2027.67      -974.703               
   181 r.185                 27.8167      -980.036               
   182 r.186                -972.183      -983.947               
   183 r.187                 27.6705      -980.036               
   184 r.188                -972.329      -983.947               
   185 r.189                       2             2               
   186 r.190                      -2         -1001               
   187 r.191                 7.40788       7.40787               
   188 r.192                    1000             2               
   189 r.193                   -1000         -1001               
   190 r.194                 987.515       6.96834               
   191 r.195                    1001             2               
   192 r.196                   -1001         -1001               
   193 r.197                 2004.79       7.81901               
   194 r.198                    1001             2               
   195 r.199                   -1001         -1001               
   196 r.200                 1988.38       7.83554               
   197 r.201                    1001             2               
   198 r.202                   -1001         -1001               
   199 r.203                 2004.79       13.5068               
   200 r.204                    1001             2               
   201 r.205                   -1001         -1001               
   202 r.206                    2000        11.618               
   203 r.207                       2             2               
   204 r.208                      -2         -1001               
   205 r.209                 992.146       6.80583               
   206 r.210                    1000             2               
   207 r.211                   -1000         -1001               
   208 r.212                 1989.31       7.02513               
   209 r.213                -985.782      -993.486               
   210 r.214                 19.9198      -993.892               
   211 r.215                -985.782      -993.486               
   212 r.216                 19.9198      -993.892               
   213 r.217                -979.154      -986.562               
   214 r.218                 20.8459      -974.703               
   215 r.219                -983.947      -986.562               
   216 r.220                 16.0525      -974.703               
   217 r.221                 20.8459      -980.036               
   218 r.222                -979.154      -983.947               
   219 r.223                 16.0525      -980.036               
   220 r.224                -983.947      -983.947               
   221 r.225                    1001             2               
   222 r.226                   -1001         -1001               
   223 r.227                 1983.95       7.81901               
   224 r.228                    1001             2               
   225 r.229                   -1001         -1001               
   226 r.230                 1972.33       7.83554               
   227 r.231                    1001             2               
   228 r.232                   -1001         -1001               
   229 r.233                 1983.95       13.5068               
   230 r.234                    1001             2               
   231 r.235                   -1001         -1001               
   232 r.236                 1983.95        11.618               
   233 r.237                       2             2               
   234 r.238                      -2         -1001               
   235 r.239                   971.3       6.80583               
   236 r.240                    1000             2               
   237 r.241                   -1000         -1001               
   238 r.242                 1973.26       7.02513               
   239 r.243                    1001             2               
   240 r.244                   -1001         -1001               
   241 r.245                    2000      -980.036               
   242 r.246                    1001             2               
   243 r.247                   -1001         -1001               
   244 r.248                    2000      -983.947               
   245 r.249                    1001             2               
   246 r.250                   -1001         -1001               
   247 r.251                 1986.56       7.40787               
   248 r.252                    1001             2               
   249 r.253                   -1001         -1001               
   250 r.254                 971.462       6.96834               
   251 r.255                    1001             2               
   252 r.256                   -1001         -1001               
   253 r.257                    2000        13.438               
   254 r.258                    1001             2               
   255 r.259                   -1001         -1001               
   256 r.260                    2000       25.2968               

   No. Column name       Activity     Lower bound   Upper bound
------ ------------    ------------- ------------- -------------
     1 tt                    36.7778             0               
     2 s_1_1        *              1             0             1 
     3 t_1_1                  13.438             0               
     4 s_1_7        *              1             0             1 
     5 s_2_1        *              0             0             1 
     6 t_2_1                 1028.54             0               
     7 s_2_7        *              0             0             1 
     8 s_1_2        *              0             0             1 
     9 t_1_2                 16.0525             0               
    10 s_1_8        *              0             0             1 
    11 s_2_2        *              1             0             1 
    12 t_2_2                 27.6705             0               
    13 s_2_8        *              1             0             1 
    14 s_1_3        *              0             0             1 
    15 t_1_3                 16.0525             0               
    16 s_2_3        *              1             0             1 
    17 t_2_3                 16.0525             0               
    18 s_1_4        *              1             0             1 
    19 t_1_4                 27.8167             0               
    20 s_2_4        *              0             0             1 
    21 t_2_4                 27.6705             0               
    22 s_1_5        *              1             0             1 
    23 t_1_5                 20.8459             0               
    24 s_2_5        *              0             0             1 
    25 t_2_5                 16.0525             0               
    26 s_1_6        *              1             0             1 
    27 t_1_6                 35.5061             0               
    28 s_2_6        *              0             0             1 
    29 t_2_6                 35.5061             0               
    30 t_1_7                       0             0               
    31 t_2_7                       0             0               
    32 t_1_8                       0             0               
    33 t_2_8                       0             0               
    34 r_1_1_2      *              1             0             1 
    35 u_1_1_2      *              0             0             1 
    36 r_2_1_2      *              1             0             1 
    37 u_2_1_2      *              0             0             1 
    38 r_1_1_3      *              1             0             1 
    39 u_1_1_3      *              0             0             1 
    40 r_2_1_3      *              1             0             1 
    41 u_2_1_3      *              0             0             1 
    42 r_1_1_4      *              0             0             1 
    43 u_1_1_4      *              0             0             1 
    44 r_2_1_4      *              1             0             1 
    45 u_2_1_4      *              0             0             1 
    46 r_1_1_5      *              0             0             1 
    47 u_1_1_5      *              0             0             1 
    48 r_2_1_5      *              1             0             1 
    49 u_2_1_5      *              0             0             1 
    50 r_1_1_8      *              1             0             1 
    51 u_1_1_8      *              0             0             1 
    52 r_2_1_8      *              1             0             1 
    53 u_2_1_8      *              0             0             1 
    54 r_1_2_3      *              1             0             1 
    55 u_1_2_3      *              0             0             1 
    56 r_2_2_3      *              0             0             1 
    57 u_2_2_3      *              1             0             1 
    58 r_1_2_4      *              1             0             1 
    59 u_1_2_4      *              0             0             1 
    60 r_2_2_4      *              1             0             1 
    61 u_2_2_4      *              0             0             1 
    62 r_1_2_5      *              1             0             1 
    63 u_1_2_5      *              0             0             1 
    64 r_2_2_5      *              1             0             1 
    65 u_2_2_5      *              0             0             1 
    66 r_1_2_7      *              1             0             1 
    67 u_1_2_7      *              0             0             1 
    68 r_2_2_7      *              1             0             1 
    69 u_2_2_7      *              0             0             1 
    70 r_1_3_5      *              1             0             1 
    71 u_1_3_5      *              0             0             1 
    72 r_2_3_5      *              1             0             1 
    73 u_2_3_5      *              0             0             1 
    74 r_1_3_7      *              1             0             1 
    75 u_1_3_7      *              0             0             1 
    76 r_2_3_7      *              1             0             1 
    77 u_2_3_7      *              0             0             1 
    78 r_1_4_5      *              0             0             1 
    79 u_1_4_5      *              1             0             1 
    80 r_2_4_5      *              1             0             1 
    81 u_2_4_5      *              0             0             1 
    82 r_1_4_7      *              0             0             1 
    83 u_1_4_7      *              1             0             1 
    84 r_2_4_7      *              1             0             1 
    85 u_2_4_7      *              0             0             1 
    86 r_1_7_8      *              1             0             1 
    87 u_1_7_8      *              0             0             1 
    88 r_2_7_8      *              1             0             1 
    89 u_2_7_8      *              0             0             1 

Integer feasibility conditions:

KKT.PE: max.abs.err = 9.09e-13 on row 52
        max.rel.err = 1.50e-16 on row 52
        High quality

KKT.PB: max.abs.err = 1.14e-13 on row 104
        max.rel.err = 1.14e-16 on row 104
        High quality

End of output
